617	710	706	698	791	702
716	652	703	692	652	614
866	697	801	647	666	653
660	813	622	741	688	686
636	899	656	668	708	548
698	625	686	685	732	644
812	703	687	876	585	647
678	701	662	686	869	568
635	850	806	656	628	700
844	712	664	624	801	685
